10	5
0	4	4	1	2	3
1	3	7	6	9
2	2	10	8
3	2	5	8
4	0
5	2	9	10
6	2	10	8
7	2	8	10
8	1	11
9	1	11
10	1	11
11	0
0	0	0	0	0	0	0
1	1	4	5	3	2	4
2	8	3	5	5	2	4
3	9	2	4	3	1	2
4	6	1	1	4	5	5
5	3	4	2	5	1	5
6	10	3	1	2	4	4
7	5	3	3	4	2	5
8	7	1	3	5	2	2
9	10	3	1	3	5	4
10	10	2	3	3	1	2
11	0	0	0	0	0	0
5	7	6	5	7
